7943
1 1 0 0 0 0 0 0 0 1 0 0 1 0 1 0 0 1 0 0 0 1 0 0 0 0 0 0 1 1 
1 1 1 1 1 1 1 0 0 0 0 0 0 0 0 0 0 14 14 14 14 14 14 9 9 9 9 9 9 9 12 12 12 12 12 12 12 17 17 17 17 17 17 17 17 17 17 17 17 17 17 17 17 21 21 21 21 21 21 21 28 28 28 28 28 28 28 29 29 28 
